Ni Pt                                   
   1.00000000000000     
    10.2503609999999998    0.0000000000000000    0.0000000000000000
     0.0000000000000000    8.8770729999999993    0.0000000000000000
     0.0000000000000000    0.0000000000000000   18.2770389999999985
   Ni   Pt
    36    28
Direct
  0.0034100132157581  0.9969397591953754  0.3236391065319025
  0.2523803382719793  0.9965556923623458  0.3240367204394582
  0.7518200026844014  0.9971622105846104  0.3236442963654193
  0.1279888977144683  0.2510326413465417  0.3237718456597070
  0.0034630773759348  0.4970746932320433  0.3233073350199307
  0.2523186791850724  0.4965098883157413  0.3238823019219419
  0.5029408664048727  0.4965743598526306  0.3239416068177621
  0.1280116674036425  0.7513402077029805  0.3239656279872136
  0.6276160633206751  0.7511794111251481  0.3239723775172891
  0.8770413107313396  0.0824439323948634  0.4395908565866472
  0.0018917752807351  0.3315784689143289  0.4385082575097889
  0.2533085819454605  0.3314945313415326  0.4400337877561124
  0.7526536959402498  0.3312869046210769  0.4385499510715380
  0.3772162900514849  0.5814435483763334  0.4411265385164558
  0.8770937198592462  0.5826399843575496  0.4392482927482985
  0.0017304297639986  0.8317125317657141  0.4390524050007267
  0.2534066874506524  0.8314644989411361  0.4402418655694439
  0.5011338192043010  0.8316801595908375  0.4402593786357806
  0.0020307806010944  0.1650981348323899  0.5549710631861327
  0.5018241194938731  0.1640565396122232  0.5565010153267095
  0.7484185200567310  0.1662350461882744  0.5558183770290203
  0.1260101893076522  0.4141509174464715  0.5557570134139571
  0.6254935802415627  0.4135774665289711  0.5556990296614387
  0.0019463779896243  0.6652973292478115  0.5550596371198225
  0.2497466007926701  0.6652944808664587  0.5566282762233259
  0.7487136083031323  0.6665017159655656  0.5558302352825322
  0.1261142526619638  0.9143699402517842  0.5561260176128544
  0.5030751738641203  0.9966080982151154  0.3241177868591704
  0.6275399246944396  0.2510316760646256  0.3237825845011468
  0.7518471150385786  0.4969976710228272  0.3234096050216856
  0.3770896566742304  0.0813128790772648  0.4415602383224948
  0.5012563292390045  0.3316440870362407  0.4401288063140819
  0.7528811251159637  0.8314879822127439  0.4389700677343274
  0.2497351287808408  0.1651043970585518  0.5568430124976171
  0.5019231132833094  0.6643850144975798  0.5563635744142532
  0.6256360102145223  0.9138024054902198  0.5558821812269426
  0.3777446078646627  0.2466114130475409  0.3223426730783002
  0.8776726571287342  0.2471475368555463  0.3208605008080577
  0.3778079098156198  0.7468413904083274  0.3222741878392474
  0.1275661543588034  0.0814135189691797  0.4393389190807510
  0.6267313175037597  0.0813433421962133  0.4394321645124175
  0.1274989577856037  0.5814376959646841  0.4391688373452218
  0.8776480977062259  0.7473238756009458  0.3210134848742132
  0.6269338708788368  0.5813918119169710  0.4393773545764701
  0.8766790239718004  0.4166706313165944  0.5539925112399428
  0.3776752750392431  0.9156225918212395  0.5580074994530212
  0.8768488914015636  0.9170459773496221  0.5550604489792710
  0.2434691882006106 -0.0031456644756944  0.6876436793113119
  0.4935899417807736  0.9962538745768070  0.7104007157996085
  0.7410190670510214 -0.0030091384204826  0.6852830459155197
  0.3687157694011954  0.2455211872735399  0.6881014120779407
  0.6160992775121218  0.2462414229454035  0.6773258532346785
  0.8679092658540013  0.2454732172691106  0.6825885882206053
  0.9930262720967873  0.4964448194234988  0.6948523097409706
  0.4935529322011659  0.4964234712557622  0.7086326182983202
  0.7408807942824429  0.4968576224043956  0.6835347860021516
  0.1177413598828024  0.7469229985896605  0.6761245848965829
  0.6159048494516560  0.7469150592066315  0.6773460751532029
  0.8676687409371141  0.7459791758387389  0.6835167811080964
  0.3778005049056021  0.4157567858441778  0.5573431397030433
  0.9930141489018535  0.9963703342240566  0.6988294236008477
  0.1179520826551603  0.2458580141245917  0.6759855700650436
  0.2434129757848945  0.4968515826255542  0.6859322904623916
  0.3684736749935576  0.7458850146462964  0.6889503349329622
 
  0.00000000E+00  0.00000000E+00  0.00000000E+00
  0.00000000E+00  0.00000000E+00  0.00000000E+00
  0.00000000E+00  0.00000000E+00  0.00000000E+00
  0.00000000E+00  0.00000000E+00  0.00000000E+00
  0.00000000E+00  0.00000000E+00  0.00000000E+00
  0.00000000E+00  0.00000000E+00  0.00000000E+00
  0.00000000E+00  0.00000000E+00  0.00000000E+00
  0.00000000E+00  0.00000000E+00  0.00000000E+00
  0.00000000E+00  0.00000000E+00  0.00000000E+00
  0.00000000E+00  0.00000000E+00  0.00000000E+00
  0.00000000E+00  0.00000000E+00  0.00000000E+00
  0.00000000E+00  0.00000000E+00  0.00000000E+00
  0.00000000E+00  0.00000000E+00  0.00000000E+00
  0.00000000E+00  0.00000000E+00  0.00000000E+00
  0.00000000E+00  0.00000000E+00  0.00000000E+00
  0.00000000E+00  0.00000000E+00  0.00000000E+00
  0.00000000E+00  0.00000000E+00  0.00000000E+00
  0.00000000E+00  0.00000000E+00  0.00000000E+00
  0.00000000E+00  0.00000000E+00  0.00000000E+00
  0.00000000E+00  0.00000000E+00  0.00000000E+00
  0.00000000E+00  0.00000000E+00  0.00000000E+00
  0.00000000E+00  0.00000000E+00  0.00000000E+00
  0.00000000E+00  0.00000000E+00  0.00000000E+00
  0.00000000E+00  0.00000000E+00  0.00000000E+00
  0.00000000E+00  0.00000000E+00  0.00000000E+00
  0.00000000E+00  0.00000000E+00  0.00000000E+00
  0.00000000E+00  0.00000000E+00  0.00000000E+00
  0.00000000E+00  0.00000000E+00  0.00000000E+00
  0.00000000E+00  0.00000000E+00  0.00000000E+00
  0.00000000E+00  0.00000000E+00  0.00000000E+00
  0.00000000E+00  0.00000000E+00  0.00000000E+00
  0.00000000E+00  0.00000000E+00  0.00000000E+00
  0.00000000E+00  0.00000000E+00  0.00000000E+00
  0.00000000E+00  0.00000000E+00  0.00000000E+00
  0.00000000E+00  0.00000000E+00  0.00000000E+00
  0.00000000E+00  0.00000000E+00  0.00000000E+00
  0.00000000E+00  0.00000000E+00  0.00000000E+00
  0.00000000E+00  0.00000000E+00  0.00000000E+00
  0.00000000E+00  0.00000000E+00  0.00000000E+00
  0.00000000E+00  0.00000000E+00  0.00000000E+00
  0.00000000E+00  0.00000000E+00  0.00000000E+00
  0.00000000E+00  0.00000000E+00  0.00000000E+00
  0.00000000E+00  0.00000000E+00  0.00000000E+00
  0.00000000E+00  0.00000000E+00  0.00000000E+00
  0.00000000E+00  0.00000000E+00  0.00000000E+00
  0.00000000E+00  0.00000000E+00  0.00000000E+00
  0.00000000E+00  0.00000000E+00  0.00000000E+00
  0.00000000E+00  0.00000000E+00  0.00000000E+00
  0.00000000E+00  0.00000000E+00  0.00000000E+00
  0.00000000E+00  0.00000000E+00  0.00000000E+00
  0.00000000E+00  0.00000000E+00  0.00000000E+00
  0.00000000E+00  0.00000000E+00  0.00000000E+00
  0.00000000E+00  0.00000000E+00  0.00000000E+00
  0.00000000E+00  0.00000000E+00  0.00000000E+00
  0.00000000E+00  0.00000000E+00  0.00000000E+00
  0.00000000E+00  0.00000000E+00  0.00000000E+00
  0.00000000E+00  0.00000000E+00  0.00000000E+00
  0.00000000E+00  0.00000000E+00  0.00000000E+00
  0.00000000E+00  0.00000000E+00  0.00000000E+00
  0.00000000E+00  0.00000000E+00  0.00000000E+00
  0.00000000E+00  0.00000000E+00  0.00000000E+00
  0.00000000E+00  0.00000000E+00  0.00000000E+00
  0.00000000E+00  0.00000000E+00  0.00000000E+00
  0.00000000E+00  0.00000000E+00  0.00000000E+00
