Ni Pt  O  H                             
   1.00000000000000     
    10.5333454552672876    0.0000000000000000    0.0000000000000000
     0.0000000000000000    9.1221447510988334    0.0000000000000000
     0.0000000000000000    0.0000000000000000   18.4503304124672560
   Ni   Pt   O    H 
    24    40     1     1
Selective dynamics
Direct
  0.0000000000000000  0.0000000000000000  0.3251974282230563   F   F   F
  0.5000000000000000  0.0000000000000000  0.3251974282230563   F   F   F
  0.0000000000000000  0.3333333333333357  0.4417324760743497   F   F   F
  0.5000000000000000  0.3333333333333357  0.4417324760743497   F   F   F
  0.2476081040101858  0.1652846964765239  0.5637509364993036   T   T   T
  0.7480780050597209  0.1649495890267189  0.5643548055468216   T   T   T
  0.1250000000000000  0.2500000000000000  0.3251974282230563   F   F   F
  0.6250000000000000  0.2500000000000000  0.3251974282230563   F   F   F
  0.3750000000000000  0.0833333333333357  0.4417324760743497   F   F   F
  0.8750000000000000  0.0833333333333357  0.4417324760743497   F   F   F
  0.3733751681045425  0.4176501401846508  0.5632801071102168   T   T   T
  0.8728451925093210  0.4175679622771655  0.5620912388301225   T   T   T
  0.0000000000000000  0.5000000000000000  0.3251974282230563   F   F   F
  0.5000000000000000  0.5000000000000000  0.3251974282230563   F   F   F
  0.0000000000000000  0.8333333333333357  0.4417324760743497   F   F   F
  0.5000000000000000  0.8333333333333357  0.4417324760743497   F   F   F
  0.2477043167883915  0.6666877910959658  0.5652193320368925   T   T   T
  0.7474597852969649  0.6650466179151664  0.5647751203144066   T   T   T
  0.1250000000000000  0.7500000000000000  0.3251974282230563   F   F   F
  0.6250000000000000  0.7500000000000000  0.3251974282230563   F   F   F
  0.3750000000000000  0.5833333333333357  0.4417324760743497   F   F   F
  0.8750000000000000  0.5833333333333357  0.4417324760743497   F   F   F
  0.3709809251505160  0.9174372181783108  0.5620718099096522   T   T   T
  0.8709397563571828  0.9184374289703666  0.5628204668555649   T   T   T
  0.2500000000000000  0.5000000000000000  0.3251974282230563   F   F   F
  0.7500000000000000  0.5000000000000000  0.3251974282230563   F   F   F
  0.2500000000000000  0.8333333333333357  0.4417324760743497   F   F   F
  0.7500000000000000  0.8333333333333357  0.4417324760743497   F   F   F
  0.9899739236112153  0.6658346819627197  0.5592755853833107   T   T   T
  0.4897358630668039  0.6668457020351598  0.5588630056418948   T   T   T
  0.3750000000000000  0.7500000000000000  0.3251974282230563   F   F   F
  0.8750000000000000  0.7500000000000000  0.3251974282230563   F   F   F
  0.1250000000000000  0.5833333333333357  0.4417324760743497   F   F   F
  0.6250000000000000  0.5833333333333357  0.4417324760743497   F   F   F
  0.1240718850970879  0.9145025871807007  0.5632468713981307   T   T   T
  0.6256834104224369  0.9143024187272374  0.5641872480703527   T   T   T
  0.2500000000000000  0.0000000000000000  0.3251974282230563   F   F   F
  0.7500000000000000  0.0000000000000000  0.3251974282230563   F   F   F
  0.2500000000000000  0.3333333333333357  0.4417324760743497   F   F   F
  0.7500000000000000  0.3333333333333357  0.4417324760743497   F   F   F
  0.9914891792448808  0.1687664507753945  0.5591728236614454   T   T   T
  0.4903633372977590  0.1658265896537814  0.5591009594435069   T   T   T
 -0.0037528623905210  0.9965118329984772  0.6916021714693785   T   T   T
  0.2472408073086134  0.9971183300710013  0.6898085507986009   T   T   T
  0.4958075095370854  0.9960276527871912  0.6920522764735512   T   T   T
  0.7471189600512566  0.9972200448724257  0.6926646279121186   T   T   T
 -0.0062025628442023  0.4966771840611182  0.6911459952367929   T   T   T
  0.2440580076016901  0.4956729419013619  0.7097244712170306   T   T   T
  0.4956460823837077  0.4963710877516291  0.6883355483983480   T   T   T
  0.7462854064878975  0.4971636204066990  0.6935739259416267   T   T   T
  0.3750000000000000  0.2500000000000000  0.3251974282230563   F   F   F
  0.8750000000000000  0.2500000000000000  0.3251974282230563   F   F   F
  0.1250000000000000  0.0833333333333357  0.4417324760743497   F   F   F
  0.6250000000000000  0.0833333333333357  0.4417324760743497   F   F   F
  0.1317689639636396  0.4174038836647730  0.5696744695322135   T   T   T
  0.6270651244585064  0.4141619837665768  0.5637981201560596   T   T   T
  0.1209465627464785  0.2455229780208234  0.6937075197153384   T   T   T
  0.3705278109821143  0.2465053703843310  0.6856792120175927   T   T   T
  0.6213838139429977  0.2458598741719939  0.6925349679150997   T   T   T
  0.8703106997163932  0.2461615602973791  0.6865149504672378   T   T   T
  0.1207160595650646  0.7470807178299270  0.6921700669901369   T   T   T
  0.3701008056804952  0.7461287327051969  0.6859012838720031   T   T   T
  0.6212721010754716  0.7470147956306300  0.6925865306713609   T   T   T
  0.8702326782807449  0.7474133201428472  0.6870472592893633   T   T   T
  0.2642354283408115  0.5089271697909010  0.8175857755590478   T   T   T
  0.2101728607366353  0.5907116714541597  0.8329622208934743   T   T   T
 
  0.00000000E+00  0.00000000E+00  0.00000000E+00
  0.00000000E+00  0.00000000E+00  0.00000000E+00
  0.00000000E+00  0.00000000E+00  0.00000000E+00
  0.00000000E+00  0.00000000E+00  0.00000000E+00
  0.00000000E+00  0.00000000E+00  0.00000000E+00
  0.00000000E+00  0.00000000E+00  0.00000000E+00
  0.00000000E+00  0.00000000E+00  0.00000000E+00
  0.00000000E+00  0.00000000E+00  0.00000000E+00
  0.00000000E+00  0.00000000E+00  0.00000000E+00
  0.00000000E+00  0.00000000E+00  0.00000000E+00
  0.00000000E+00  0.00000000E+00  0.00000000E+00
  0.00000000E+00  0.00000000E+00  0.00000000E+00
  0.00000000E+00  0.00000000E+00  0.00000000E+00
  0.00000000E+00  0.00000000E+00  0.00000000E+00
  0.00000000E+00  0.00000000E+00  0.00000000E+00
  0.00000000E+00  0.00000000E+00  0.00000000E+00
  0.00000000E+00  0.00000000E+00  0.00000000E+00
  0.00000000E+00  0.00000000E+00  0.00000000E+00
  0.00000000E+00  0.00000000E+00  0.00000000E+00
  0.00000000E+00  0.00000000E+00  0.00000000E+00
  0.00000000E+00  0.00000000E+00  0.00000000E+00
  0.00000000E+00  0.00000000E+00  0.00000000E+00
  0.00000000E+00  0.00000000E+00  0.00000000E+00
  0.00000000E+00  0.00000000E+00  0.00000000E+00
  0.00000000E+00  0.00000000E+00  0.00000000E+00
  0.00000000E+00  0.00000000E+00  0.00000000E+00
  0.00000000E+00  0.00000000E+00  0.00000000E+00
  0.00000000E+00  0.00000000E+00  0.00000000E+00
  0.00000000E+00  0.00000000E+00  0.00000000E+00
  0.00000000E+00  0.00000000E+00  0.00000000E+00
  0.00000000E+00  0.00000000E+00  0.00000000E+00
  0.00000000E+00  0.00000000E+00  0.00000000E+00
  0.00000000E+00  0.00000000E+00  0.00000000E+00
  0.00000000E+00  0.00000000E+00  0.00000000E+00
  0.00000000E+00  0.00000000E+00  0.00000000E+00
  0.00000000E+00  0.00000000E+00  0.00000000E+00
  0.00000000E+00  0.00000000E+00  0.00000000E+00
  0.00000000E+00  0.00000000E+00  0.00000000E+00
  0.00000000E+00  0.00000000E+00  0.00000000E+00
  0.00000000E+00  0.00000000E+00  0.00000000E+00
  0.00000000E+00  0.00000000E+00  0.00000000E+00
  0.00000000E+00  0.00000000E+00  0.00000000E+00
  0.00000000E+00  0.00000000E+00  0.00000000E+00
  0.00000000E+00  0.00000000E+00  0.00000000E+00
  0.00000000E+00  0.00000000E+00  0.00000000E+00
  0.00000000E+00  0.00000000E+00  0.00000000E+00
  0.00000000E+00  0.00000000E+00  0.00000000E+00
  0.00000000E+00  0.00000000E+00  0.00000000E+00
  0.00000000E+00  0.00000000E+00  0.00000000E+00
  0.00000000E+00  0.00000000E+00  0.00000000E+00
  0.00000000E+00  0.00000000E+00  0.00000000E+00
  0.00000000E+00  0.00000000E+00  0.00000000E+00
  0.00000000E+00  0.00000000E+00  0.00000000E+00
  0.00000000E+00  0.00000000E+00  0.00000000E+00
  0.00000000E+00  0.00000000E+00  0.00000000E+00
  0.00000000E+00  0.00000000E+00  0.00000000E+00
  0.00000000E+00  0.00000000E+00  0.00000000E+00
  0.00000000E+00  0.00000000E+00  0.00000000E+00
  0.00000000E+00  0.00000000E+00  0.00000000E+00
  0.00000000E+00  0.00000000E+00  0.00000000E+00
  0.00000000E+00  0.00000000E+00  0.00000000E+00
  0.00000000E+00  0.00000000E+00  0.00000000E+00
  0.00000000E+00  0.00000000E+00  0.00000000E+00
  0.00000000E+00  0.00000000E+00  0.00000000E+00
  0.00000000E+00  0.00000000E+00  0.00000000E+00
  0.00000000E+00  0.00000000E+00  0.00000000E+00
