Pt  O  H                                
   1.00000000000000     
    11.0993137229289989    0.0000000000000000    0.0000000000000000
     0.0000000000000000    9.6122876486297457    0.0000000000000000
     0.0000000000000000    0.0000000000000000   18.7969137790617893
   Pt   O    H 
    64     1     1
Selective dynamics
Direct
  0.0000000000000000  0.0000000000000000  0.3192013364812851   F   F   F
  0.2500000000000000  0.0000000000000000  0.3192013364812851   F   F   F
  0.5000000000000000  0.0000000000000000  0.3192013364812851   F   F   F
  0.7500000000000000  0.0000000000000000  0.3192013364812851   F   F   F
  0.1250000000000000  0.2500000000000000  0.3192013364812851   F   F   F
  0.3750000000000000  0.2500000000000000  0.3192013364812851   F   F   F
  0.6250000000000000  0.2500000000000000  0.3192013364812851   F   F   F
  0.8750000000000000  0.2500000000000000  0.3192013364812851   F   F   F
  0.0000000000000000  0.5000000000000000  0.3192013364812851   F   F   F
  0.2500000000000000  0.5000000000000000  0.3192013364812851   F   F   F
  0.5000000000000000  0.5000000000000000  0.3192013364812851   F   F   F
  0.7500000000000000  0.5000000000000000  0.3192013364812851   F   F   F
  0.1250000000000000  0.7500000000000000  0.3192013364812851   F   F   F
  0.3750000000000000  0.7500000000000000  0.3192013364812851   F   F   F
  0.6250000000000000  0.7500000000000000  0.3192013364812851   F   F   F
  0.8750000000000000  0.7500000000000000  0.3192013364812851   F   F   F
  0.1250000000000000  0.0833333333333357  0.4397337788270974   F   F   F
  0.3750000000000000  0.0833333333333357  0.4397337788270974   F   F   F
  0.6250000000000000  0.0833333333333357  0.4397337788270974   F   F   F
  0.8750000000000000  0.0833333333333357  0.4397337788270974   F   F   F
  0.0000000000000000  0.3333333333333357  0.4397337788270974   F   F   F
  0.2500000000000000  0.3333333333333357  0.4397337788270974   F   F   F
  0.5000000000000000  0.3333333333333357  0.4397337788270974   F   F   F
  0.7500000000000000  0.3333333333333357  0.4397337788270974   F   F   F
  0.1250000000000000  0.5833333333333357  0.4397337788270974   F   F   F
  0.3750000000000000  0.5833333333333357  0.4397337788270974   F   F   F
  0.6250000000000000  0.5833333333333357  0.4397337788270974   F   F   F
  0.8750000000000000  0.5833333333333357  0.4397337788270974   F   F   F
  0.0000000000000000  0.8333333333333357  0.4397337788270974   F   F   F
  0.2500000000000000  0.8333333333333357  0.4397337788270974   F   F   F
  0.5000000000000000  0.8333333333333357  0.4397337788270974   F   F   F
  0.7500000000000000  0.8333333333333357  0.4397337788270974   F   F   F
  0.0000053578132444  0.1649333215382743  0.5643118261257852   T   T   T
  0.2498271326095540  0.1657473204467861  0.5636478028724397   T   T   T
  0.4999964510346189  0.1655187608748924  0.5637986866194382   T   T   T
  0.7501770513711842  0.1657438376845509  0.5636521269592538   T   T   T
  0.1252305366817519  0.4147283418300583  0.5634393639983559   T   T   T
  0.3765624640951016  0.4164810916278532  0.5667661721967475   T   T   T
  0.6234345906119554  0.4164805047322813  0.5667653113129052   T   T   T
  0.8747710714825043  0.4147239222733884  0.5634436771136144   T   T   T
  0.0000074795573895  0.6646035823464634  0.5641905644302205   T   T   T
  0.2496802898219739  0.6653474249049351  0.5637310430940164   T   T   T
  0.4999976939829119  0.6650207681855778  0.5652836723049066   T   T   T
  0.7503208168829766  0.6653403637434022  0.5637354297613011   T   T   T
  0.1247343046340602  0.9152466718932695  0.5641310983825708   T   T   T
  0.3748210287461224  0.9156572693832553  0.5633413680801397   T   T   T
  0.6251761446291615  0.9156541341640667  0.5633445224780202   T   T   T
  0.8752732693134361  0.9152388922817806  0.5641320412296201   T   T   T
 -0.0000187032438843 -0.0043820954971968  0.6906972710162371   T   T   T
  0.2498257410788886 -0.0044062287681998  0.6902009249184973   T   T   T
  0.5000003732812438 -0.0044085543372854  0.6896850135079053   T   T   T
  0.7501704316920094 -0.0044116581419844  0.6902072565937116   T   T   T
  0.1246710981129903  0.2446181476698379  0.6902024695153623   T   T   T
  0.3738157971853221  0.2435257360858166  0.6891971986052451   T   T   T
  0.6261832838832452  0.2435231326927118  0.6892043701396826   T   T   T
  0.8753406733222633  0.2446177334546120  0.6902100486810413   T   T   T
  0.0000056054636926  0.4957122193470494  0.6901819407823373   T   T   T
  0.2467710898932790  0.4959432835132859  0.6887188599334232   T   T   T
  0.4999991914704736  0.4952055767059574  0.6983209643213092   T   T   T
  0.7532331038698554  0.4959380511804685  0.6887282301288822   T   T   T
  0.1247661272314121  0.7468290146016925  0.6902905671706659   T   T   T
  0.3738603484504877  0.7479729718487645  0.6886941843896989   T   T   T
  0.6261407980775244  0.7479677249886255  0.6886996044764346   T   T   T
  0.8752397121702217  0.7468090542800165  0.6902852746925697   T   T   T
  0.4999989378554687  0.5035503302959680  0.8044368125538777   T   T   T
  0.5000313582178043  0.6027191371435499  0.8164125578275316   T   T   T
 
  0.00000000E+00  0.00000000E+00  0.00000000E+00
  0.00000000E+00  0.00000000E+00  0.00000000E+00
  0.00000000E+00  0.00000000E+00  0.00000000E+00
  0.00000000E+00  0.00000000E+00  0.00000000E+00
  0.00000000E+00  0.00000000E+00  0.00000000E+00
  0.00000000E+00  0.00000000E+00  0.00000000E+00
  0.00000000E+00  0.00000000E+00  0.00000000E+00
  0.00000000E+00  0.00000000E+00  0.00000000E+00
  0.00000000E+00  0.00000000E+00  0.00000000E+00
  0.00000000E+00  0.00000000E+00  0.00000000E+00
  0.00000000E+00  0.00000000E+00  0.00000000E+00
  0.00000000E+00  0.00000000E+00  0.00000000E+00
  0.00000000E+00  0.00000000E+00  0.00000000E+00
  0.00000000E+00  0.00000000E+00  0.00000000E+00
  0.00000000E+00  0.00000000E+00  0.00000000E+00
  0.00000000E+00  0.00000000E+00  0.00000000E+00
  0.00000000E+00  0.00000000E+00  0.00000000E+00
  0.00000000E+00  0.00000000E+00  0.00000000E+00
  0.00000000E+00  0.00000000E+00  0.00000000E+00
  0.00000000E+00  0.00000000E+00  0.00000000E+00
  0.00000000E+00  0.00000000E+00  0.00000000E+00
  0.00000000E+00  0.00000000E+00  0.00000000E+00
  0.00000000E+00  0.00000000E+00  0.00000000E+00
  0.00000000E+00  0.00000000E+00  0.00000000E+00
  0.00000000E+00  0.00000000E+00  0.00000000E+00
  0.00000000E+00  0.00000000E+00  0.00000000E+00
  0.00000000E+00  0.00000000E+00  0.00000000E+00
  0.00000000E+00  0.00000000E+00  0.00000000E+00
  0.00000000E+00  0.00000000E+00  0.00000000E+00
  0.00000000E+00  0.00000000E+00  0.00000000E+00
  0.00000000E+00  0.00000000E+00  0.00000000E+00
  0.00000000E+00  0.00000000E+00  0.00000000E+00
  0.00000000E+00  0.00000000E+00  0.00000000E+00
  0.00000000E+00  0.00000000E+00  0.00000000E+00
  0.00000000E+00  0.00000000E+00  0.00000000E+00
  0.00000000E+00  0.00000000E+00  0.00000000E+00
  0.00000000E+00  0.00000000E+00  0.00000000E+00
  0.00000000E+00  0.00000000E+00  0.00000000E+00
  0.00000000E+00  0.00000000E+00  0.00000000E+00
  0.00000000E+00  0.00000000E+00  0.00000000E+00
  0.00000000E+00  0.00000000E+00  0.00000000E+00
  0.00000000E+00  0.00000000E+00  0.00000000E+00
  0.00000000E+00  0.00000000E+00  0.00000000E+00
  0.00000000E+00  0.00000000E+00  0.00000000E+00
  0.00000000E+00  0.00000000E+00  0.00000000E+00
  0.00000000E+00  0.00000000E+00  0.00000000E+00
  0.00000000E+00  0.00000000E+00  0.00000000E+00
  0.00000000E+00  0.00000000E+00  0.00000000E+00
  0.00000000E+00  0.00000000E+00  0.00000000E+00
  0.00000000E+00  0.00000000E+00  0.00000000E+00
  0.00000000E+00  0.00000000E+00  0.00000000E+00
  0.00000000E+00  0.00000000E+00  0.00000000E+00
  0.00000000E+00  0.00000000E+00  0.00000000E+00
  0.00000000E+00  0.00000000E+00  0.00000000E+00
  0.00000000E+00  0.00000000E+00  0.00000000E+00
  0.00000000E+00  0.00000000E+00  0.00000000E+00
  0.00000000E+00  0.00000000E+00  0.00000000E+00
  0.00000000E+00  0.00000000E+00  0.00000000E+00
  0.00000000E+00  0.00000000E+00  0.00000000E+00
  0.00000000E+00  0.00000000E+00  0.00000000E+00
  0.00000000E+00  0.00000000E+00  0.00000000E+00
  0.00000000E+00  0.00000000E+00  0.00000000E+00
  0.00000000E+00  0.00000000E+00  0.00000000E+00
  0.00000000E+00  0.00000000E+00  0.00000000E+00
  0.00000000E+00  0.00000000E+00  0.00000000E+00
  0.00000000E+00  0.00000000E+00  0.00000000E+00
