Ni Pt                                   
   1.00000000000000     
    10.5333454552672876    0.0000000000000000    0.0000000000000000
     0.0000000000000000    9.1221447510988334    0.0000000000000000
     0.0000000000000000    0.0000000000000000   18.4503304124672560
   Ni   Pt
    24    40
Selective dynamics
Direct
  0.0000000000000000  0.0000000000000000  0.3251974282230563   F   F   F
  0.5000000000000000  0.0000000000000000  0.3251974282230563   F   F   F
  0.0000000000000000  0.3333333333333357  0.4417324760743497   F   F   F
  0.5000000000000000  0.3333333333333357  0.4417324760743497   F   F   F
  0.2474466964068610  0.1643189991084087  0.5649502328983559   T   T   T
  0.7474425113749298  0.1643367945115800  0.5649453556524217   T   T   T
  0.1250000000000000  0.2500000000000000  0.3251974282230563   F   F   F
  0.6250000000000000  0.2500000000000000  0.3251974282230563   F   F   F
  0.3750000000000000  0.0833333333333357  0.4417324760743497   F   F   F
  0.8750000000000000  0.0833333333333357  0.4417324760743497   F   F   F
  0.3712354767472084  0.4164430310506184  0.5626400376969938   T   T   T
  0.8712432171411478  0.4164488634054733  0.5626118880338183   T   T   T
  0.0000000000000000  0.5000000000000000  0.3251974282230563   F   F   F
  0.5000000000000000  0.5000000000000000  0.3251974282230563   F   F   F
  0.0000000000000000  0.8333333333333357  0.4417324760743497   F   F   F
  0.5000000000000000  0.8333333333333357  0.4417324760743497   F   F   F
  0.2474373111301734  0.6643350135718954  0.5649672878396150   T   T   T
  0.7474402943453110  0.6643208854410756  0.5649561096938231   T   T   T
  0.1250000000000000  0.7500000000000000  0.3251974282230563   F   F   F
  0.6250000000000000  0.7500000000000000  0.3251974282230563   F   F   F
  0.3750000000000000  0.5833333333333357  0.4417324760743497   F   F   F
  0.8750000000000000  0.5833333333333357  0.4417324760743497   F   F   F
  0.3712720263638991  0.9164301543373121  0.5625886160415078   T   T   T
  0.8712677444991223  0.9164426471151992  0.5625843539783222   T   T   T
  0.2500000000000000  0.5000000000000000  0.3251974282230563   F   F   F
  0.7500000000000000  0.5000000000000000  0.3251974282230563   F   F   F
  0.2500000000000000  0.8333333333333357  0.4417324760743497   F   F   F
  0.7500000000000000  0.8333333333333357  0.4417324760743497   F   F   F
 -0.0101250907085307  0.6654045433676509  0.5595244100151914   T   T   T
  0.4898622354160978  0.6653996344179944  0.5595426254619998   T   T   T
  0.3750000000000000  0.7500000000000000  0.3251974282230563   F   F   F
  0.8750000000000000  0.7500000000000000  0.3251974282230563   F   F   F
  0.1250000000000000  0.5833333333333357  0.4417324760743497   F   F   F
  0.6250000000000000  0.5833333333333357  0.4417324760743497   F   F   F
  0.1254081547463574  0.9135137384806549  0.5641152263301443   T   T   T
  0.6253944955170568  0.9135093760699440  0.5641168067754059   T   T   T
  0.2500000000000000  0.0000000000000000  0.3251974282230563   F   F   F
  0.7500000000000000  0.0000000000000000  0.3251974282230563   F   F   F
  0.2500000000000000  0.3333333333333357  0.4417324760743497   F   F   F
  0.7500000000000000  0.3333333333333357  0.4417324760743497   F   F   F
 -0.0101349901985854  0.1653987991728457  0.5595244547894177   T   T   T
  0.4898712613592982  0.1654040152626231  0.5595324646854692   T   T   T
  0.0004344590630048  0.9950119742141046  0.6922665103151150   T   T   T
  0.2515076069094084  0.9959116215251654  0.6917249190127817   T   T   T
  0.5004378532220261  0.9950189346448738  0.6922877393578855   T   T   T
  0.7515212316091556  0.9959137383225689  0.6916957413777739   T   T   T
  0.0004426251977252  0.4949984526096846  0.6922719055805527   T   T   T
  0.2515002176720729  0.4959264423140755  0.6917193951751189   T   T   T
  0.5004486238794572  0.4950000092269869  0.6922851543172062   T   T   T
  0.7514920457579733  0.4959350407773133  0.6917196110443146   T   T   T
  0.3750000000000000  0.2500000000000000  0.3251974282230563   F   F   F
  0.8750000000000000  0.2500000000000000  0.3251974282230563   F   F   F
  0.1250000000000000  0.0833333333333357  0.4417324760743497   F   F   F
  0.6250000000000000  0.0833333333333357  0.4417324760743497   F   F   F
  0.1253707573502069  0.4135004983362003  0.5641114056974492   T   T   T
  0.6253737448173595  0.4135062275933172  0.5641151311985028   T   T   T
  0.1259696886891300  0.2452835075904673  0.6933556059046330   T   T   T
  0.3752137545517779  0.2454959886134860  0.6877676246754052   T   T   T
  0.6259689924719011  0.2452787984721761  0.6933572929938950   T   T   T
  0.8752206788679738  0.2454921581947135  0.6877595249031614   T   T   T
  0.1259965930365672  0.7452881134078096  0.6933554946987492   T   T   T
  0.3752019196962748  0.7454920323806629  0.6877957095486306   T   T   T
  0.6259983693959181  0.7452731464102220  0.6933562376320603   T   T   T
  0.8751992370068766  0.7455061551411898  0.6877568111267107   T   T   T
 
  0.00000000E+00  0.00000000E+00  0.00000000E+00
  0.00000000E+00  0.00000000E+00  0.00000000E+00
  0.00000000E+00  0.00000000E+00  0.00000000E+00
  0.00000000E+00  0.00000000E+00  0.00000000E+00
  0.00000000E+00  0.00000000E+00  0.00000000E+00
  0.00000000E+00  0.00000000E+00  0.00000000E+00
  0.00000000E+00  0.00000000E+00  0.00000000E+00
  0.00000000E+00  0.00000000E+00  0.00000000E+00
  0.00000000E+00  0.00000000E+00  0.00000000E+00
  0.00000000E+00  0.00000000E+00  0.00000000E+00
  0.00000000E+00  0.00000000E+00  0.00000000E+00
  0.00000000E+00  0.00000000E+00  0.00000000E+00
  0.00000000E+00  0.00000000E+00  0.00000000E+00
  0.00000000E+00  0.00000000E+00  0.00000000E+00
  0.00000000E+00  0.00000000E+00  0.00000000E+00
  0.00000000E+00  0.00000000E+00  0.00000000E+00
  0.00000000E+00  0.00000000E+00  0.00000000E+00
  0.00000000E+00  0.00000000E+00  0.00000000E+00
  0.00000000E+00  0.00000000E+00  0.00000000E+00
  0.00000000E+00  0.00000000E+00  0.00000000E+00
  0.00000000E+00  0.00000000E+00  0.00000000E+00
  0.00000000E+00  0.00000000E+00  0.00000000E+00
  0.00000000E+00  0.00000000E+00  0.00000000E+00
  0.00000000E+00  0.00000000E+00  0.00000000E+00
  0.00000000E+00  0.00000000E+00  0.00000000E+00
  0.00000000E+00  0.00000000E+00  0.00000000E+00
  0.00000000E+00  0.00000000E+00  0.00000000E+00
  0.00000000E+00  0.00000000E+00  0.00000000E+00
  0.00000000E+00  0.00000000E+00  0.00000000E+00
  0.00000000E+00  0.00000000E+00  0.00000000E+00
  0.00000000E+00  0.00000000E+00  0.00000000E+00
  0.00000000E+00  0.00000000E+00  0.00000000E+00
  0.00000000E+00  0.00000000E+00  0.00000000E+00
  0.00000000E+00  0.00000000E+00  0.00000000E+00
  0.00000000E+00  0.00000000E+00  0.00000000E+00
  0.00000000E+00  0.00000000E+00  0.00000000E+00
  0.00000000E+00  0.00000000E+00  0.00000000E+00
  0.00000000E+00  0.00000000E+00  0.00000000E+00
  0.00000000E+00  0.00000000E+00  0.00000000E+00
  0.00000000E+00  0.00000000E+00  0.00000000E+00
  0.00000000E+00  0.00000000E+00  0.00000000E+00
  0.00000000E+00  0.00000000E+00  0.00000000E+00
  0.00000000E+00  0.00000000E+00  0.00000000E+00
  0.00000000E+00  0.00000000E+00  0.00000000E+00
  0.00000000E+00  0.00000000E+00  0.00000000E+00
  0.00000000E+00  0.00000000E+00  0.00000000E+00
  0.00000000E+00  0.00000000E+00  0.00000000E+00
  0.00000000E+00  0.00000000E+00  0.00000000E+00
  0.00000000E+00  0.00000000E+00  0.00000000E+00
  0.00000000E+00  0.00000000E+00  0.00000000E+00
  0.00000000E+00  0.00000000E+00  0.00000000E+00
  0.00000000E+00  0.00000000E+00  0.00000000E+00
  0.00000000E+00  0.00000000E+00  0.00000000E+00
  0.00000000E+00  0.00000000E+00  0.00000000E+00
  0.00000000E+00  0.00000000E+00  0.00000000E+00
  0.00000000E+00  0.00000000E+00  0.00000000E+00
  0.00000000E+00  0.00000000E+00  0.00000000E+00
  0.00000000E+00  0.00000000E+00  0.00000000E+00
  0.00000000E+00  0.00000000E+00  0.00000000E+00
  0.00000000E+00  0.00000000E+00  0.00000000E+00
  0.00000000E+00  0.00000000E+00  0.00000000E+00
  0.00000000E+00  0.00000000E+00  0.00000000E+00
  0.00000000E+00  0.00000000E+00  0.00000000E+00
  0.00000000E+00  0.00000000E+00  0.00000000E+00
