Pt Ni  O  H                             
   1.00000000000000     
    10.8163295890981441    0.0000000000000000    0.0000000000000000
     0.0000000000000000    9.3672161998642913    0.0000000000000000
     0.0000000000000000    0.0000000000000000   18.6236220957645244
   Pt   Ni   O    H 
    52    12     1     1
Selective dynamics
Direct
  0.0000000000000000  0.0000000000000000  0.3221714857156925   F   F   F
  0.1250000000000000  0.2500000000000000  0.3221714857156925   F   F   F
  0.3750000000000000  0.2500000000000000  0.3221714857156925   F   F   F
  0.8750000000000000  0.2500000000000000  0.3221714857156925   F   F   F
  0.0000000000000000  0.5000000000000000  0.3221714857156925   F   F   F
  0.5000000000000000  0.5000000000000000  0.3221714857156925   F   F   F
  0.1250000000000000  0.7500000000000000  0.3221714857156925   F   F   F
  0.3750000000000000  0.7500000000000000  0.3221714857156925   F   F   F
  0.6250000000000000  0.7500000000000000  0.3221714857156925   F   F   F
  0.1250000000000000  0.0833333333333357  0.4407238285718975   F   F   F
  0.6250000000000000  0.0833333333333357  0.4407238285718975   F   F   F
  0.8750000000000000  0.0833333333333357  0.4407238285718975   F   F   F
  0.2500000000000000  0.3333333333333357  0.4407238285718975   F   F   F
  0.7500000000000000  0.3333333333333357  0.4407238285718975   F   F   F
  0.1250000000000000  0.5833333333333357  0.4407238285718975   F   F   F
  0.3750000000000000  0.5833333333333357  0.4407238285718975   F   F   F
  0.8750000000000000  0.5833333333333357  0.4407238285718975   F   F   F
  0.2500000000000000  0.8333333333333357  0.4407238285718975   F   F   F
  0.9970048659277367  0.1691354138887254  0.5628710203791731   T   T   T
  0.4971786345059907  0.1702502397725981  0.5628431459336233   T   T   T
  0.7506867089684333  0.1660974213621282  0.5649164929349156   T   T   T
  0.1218897591685369  0.4164066642309764  0.5620560420440435   T   T   T
  0.6203914388373936  0.4176311483750231  0.5657888294757665   T   T   T
  0.9974369731661038  0.6699614233864511  0.5631378487549038   T   T   T
  0.2515422805158283  0.6657128640521927  0.5650825140901550   T   T   T
  0.7510486392901763  0.6660368865111318  0.5651345700760434   T   T   T
  0.1229869962424798  0.9163642303854752  0.5626214312862313   T   T   T
  0.2522411196884140  0.9973355934402847  0.6919522600438884   T   T   T
  0.5008040798090995  0.9974230926542456  0.6892485301436121   T   T   T
  0.7521769188418121  0.9969656200486785  0.6914615518438280   T   T   T
  0.3762039258468842  0.2484168852428495  0.6891948949051052   T   T   T
  0.6273911396262415  0.2470684605205606  0.6920500165405444   T   T   T
  0.8768244623622438  0.2481768671422022  0.6901244313973735   T   T   T
  0.0013682214297893  0.4976111451514758  0.6902117528426508   T   T   T
  0.5034539915607853  0.4992320956120013  0.7007384913012455   T   T   T
  0.7551413278863871  0.4970937086206693  0.6900762079142110   T   T   T
  0.1266616738384749  0.7494809701306300  0.6927138778965201   T   T   T
  0.6276523084875464  0.7503047700537255  0.6924021087649072   T   T   T
  0.8769706035777430  0.7498972089169960  0.6904285738768620   T   T   T
  0.0008556161550634  0.9974422593601566  0.6897002480245009   T   T   T
  0.1264235000720887  0.2478977111335766  0.6920219857431914   T   T   T
  0.2510156469892654  0.4971782530953816  0.6895499066728838   T   T   T
  0.3759327579518509  0.7510035118214967  0.6904018412607641   T   T   T
  0.5000000000000000  0.0000000000000000  0.3221714857156925   F   F   F
  0.6250000000000000  0.2500000000000000  0.3221714857156925   F   F   F
  0.8750000000000000  0.7500000000000000  0.3221714857156925   F   F   F
  0.3750000000000000  0.0833333333333357  0.4407238285718975   F   F   F
  0.6250000000000000  0.5833333333333357  0.4407238285718975   F   F   F
  0.7500000000000000  0.8333333333333357  0.4407238285718975   F   F   F
  0.2508815803290976  0.1654585005586969  0.5649170611519211   T   T   T
  0.4972240834117252  0.6676283419567436  0.5655351340818674   T   T   T
  0.6218957108341987  0.9160252068891473  0.5621407584429458   T   T   T
  0.2500000000000000  0.0000000000000000  0.3221714857156925   F   F   F
  0.7500000000000000  0.0000000000000000  0.3221714857156925   F   F   F
  0.2500000000000000  0.5000000000000000  0.3221714857156925   F   F   F
  0.0000000000000000  0.3333333333333357  0.4407238285718975   F   F   F
  0.0000000000000000  0.8333333333333357  0.4407238285718975   F   F   F
  0.5000000000000000  0.8333333333333357  0.4407238285718975   F   F   F
  0.8738994622882924  0.4169333441744307  0.5617775068359648   T   T   T
  0.3743946096439406  0.9165078018293795  0.5620529890391250   T   T   T
  0.8740837537661437  0.9173024900881789  0.5624166256304555   T   T   T
  0.7500000000000000  0.5000000000000000  0.3221714857156925   F   F   F
  0.5000000000000000  0.3333333333333357  0.4407238285718975   F   F   F
  0.3743214604137567  0.4172185037090609  0.5641027678340382   T   T   T
  0.4860965666817738  0.4939995133560784  0.8081039088977495   T   T   T
  0.4568787245045549  0.5891855292423399  0.8218907857160076   T   T   T
 
  0.00000000E+00  0.00000000E+00  0.00000000E+00
  0.00000000E+00  0.00000000E+00  0.00000000E+00
  0.00000000E+00  0.00000000E+00  0.00000000E+00
  0.00000000E+00  0.00000000E+00  0.00000000E+00
  0.00000000E+00  0.00000000E+00  0.00000000E+00
  0.00000000E+00  0.00000000E+00  0.00000000E+00
  0.00000000E+00  0.00000000E+00  0.00000000E+00
  0.00000000E+00  0.00000000E+00  0.00000000E+00
  0.00000000E+00  0.00000000E+00  0.00000000E+00
  0.00000000E+00  0.00000000E+00  0.00000000E+00
  0.00000000E+00  0.00000000E+00  0.00000000E+00
  0.00000000E+00  0.00000000E+00  0.00000000E+00
  0.00000000E+00  0.00000000E+00  0.00000000E+00
  0.00000000E+00  0.00000000E+00  0.00000000E+00
  0.00000000E+00  0.00000000E+00  0.00000000E+00
  0.00000000E+00  0.00000000E+00  0.00000000E+00
  0.00000000E+00  0.00000000E+00  0.00000000E+00
  0.00000000E+00  0.00000000E+00  0.00000000E+00
  0.00000000E+00  0.00000000E+00  0.00000000E+00
  0.00000000E+00  0.00000000E+00  0.00000000E+00
  0.00000000E+00  0.00000000E+00  0.00000000E+00
  0.00000000E+00  0.00000000E+00  0.00000000E+00
  0.00000000E+00  0.00000000E+00  0.00000000E+00
  0.00000000E+00  0.00000000E+00  0.00000000E+00
  0.00000000E+00  0.00000000E+00  0.00000000E+00
  0.00000000E+00  0.00000000E+00  0.00000000E+00
  0.00000000E+00  0.00000000E+00  0.00000000E+00
  0.00000000E+00  0.00000000E+00  0.00000000E+00
  0.00000000E+00  0.00000000E+00  0.00000000E+00
  0.00000000E+00  0.00000000E+00  0.00000000E+00
  0.00000000E+00  0.00000000E+00  0.00000000E+00
  0.00000000E+00  0.00000000E+00  0.00000000E+00
  0.00000000E+00  0.00000000E+00  0.00000000E+00
  0.00000000E+00  0.00000000E+00  0.00000000E+00
  0.00000000E+00  0.00000000E+00  0.00000000E+00
  0.00000000E+00  0.00000000E+00  0.00000000E+00
  0.00000000E+00  0.00000000E+00  0.00000000E+00
  0.00000000E+00  0.00000000E+00  0.00000000E+00
  0.00000000E+00  0.00000000E+00  0.00000000E+00
  0.00000000E+00  0.00000000E+00  0.00000000E+00
  0.00000000E+00  0.00000000E+00  0.00000000E+00
  0.00000000E+00  0.00000000E+00  0.00000000E+00
  0.00000000E+00  0.00000000E+00  0.00000000E+00
  0.00000000E+00  0.00000000E+00  0.00000000E+00
  0.00000000E+00  0.00000000E+00  0.00000000E+00
  0.00000000E+00  0.00000000E+00  0.00000000E+00
  0.00000000E+00  0.00000000E+00  0.00000000E+00
  0.00000000E+00  0.00000000E+00  0.00000000E+00
  0.00000000E+00  0.00000000E+00  0.00000000E+00
  0.00000000E+00  0.00000000E+00  0.00000000E+00
  0.00000000E+00  0.00000000E+00  0.00000000E+00
  0.00000000E+00  0.00000000E+00  0.00000000E+00
  0.00000000E+00  0.00000000E+00  0.00000000E+00
  0.00000000E+00  0.00000000E+00  0.00000000E+00
  0.00000000E+00  0.00000000E+00  0.00000000E+00
  0.00000000E+00  0.00000000E+00  0.00000000E+00
  0.00000000E+00  0.00000000E+00  0.00000000E+00
  0.00000000E+00  0.00000000E+00  0.00000000E+00
  0.00000000E+00  0.00000000E+00  0.00000000E+00
  0.00000000E+00  0.00000000E+00  0.00000000E+00
  0.00000000E+00  0.00000000E+00  0.00000000E+00
  0.00000000E+00  0.00000000E+00  0.00000000E+00
  0.00000000E+00  0.00000000E+00  0.00000000E+00
  0.00000000E+00  0.00000000E+00  0.00000000E+00
  0.00000000E+00  0.00000000E+00  0.00000000E+00
  0.00000000E+00  0.00000000E+00  0.00000000E+00
