Pt Ni                                   
   1.00000000000000     
    10.8163295890981441    0.0000000000000000    0.0000000000000000
     0.0000000000000000    9.3672161998642913    0.0000000000000000
     0.0000000000000000    0.0000000000000000   18.6236220957645244
   Pt   Ni
    52    12
Selective dynamics
Direct
  0.0000000000000000  0.0000000000000000  0.3221714857156925   F   F   F
  0.1250000000000000  0.2500000000000000  0.3221714857156925   F   F   F
  0.3750000000000000  0.2500000000000000  0.3221714857156925   F   F   F
  0.8750000000000000  0.2500000000000000  0.3221714857156925   F   F   F
  0.0000000000000000  0.5000000000000000  0.3221714857156925   F   F   F
  0.5000000000000000  0.5000000000000000  0.3221714857156925   F   F   F
  0.1250000000000000  0.7500000000000000  0.3221714857156925   F   F   F
  0.3750000000000000  0.7500000000000000  0.3221714857156925   F   F   F
  0.6250000000000000  0.7500000000000000  0.3221714857156925   F   F   F
  0.1250000000000000  0.0833333333333357  0.4407238285718975   F   F   F
  0.6250000000000000  0.0833333333333357  0.4407238285718975   F   F   F
  0.8750000000000000  0.0833333333333357  0.4407238285718975   F   F   F
  0.2500000000000000  0.3333333333333357  0.4407238285718975   F   F   F
  0.7500000000000000  0.3333333333333357  0.4407238285718975   F   F   F
  0.1250000000000000  0.5833333333333357  0.4407238285718975   F   F   F
  0.3750000000000000  0.5833333333333357  0.4407238285718975   F   F   F
  0.8750000000000000  0.5833333333333357  0.4407238285718975   F   F   F
  0.2500000000000000  0.8333333333333357  0.4407238285718975   F   F   F
 -0.0025330495166952  0.1695703083165071  0.5635821420661803   T   T   T
  0.4970987824932912  0.1709787279954336  0.5630102080914315   T   T   T
  0.7516252733221209  0.1655959356817581  0.5655170095684564   T   T   T
  0.1220015479421731  0.4167922939817378  0.5627804986386307   T   T   T
  0.6231078452522996  0.4170715558251171  0.5624886799436760   T   T   T
  0.9972886986550933  0.6703730359393546  0.5635521180827594   T   T   T
  0.2508261748873678  0.6655028871620541  0.5653593965871677   T   T   T
  0.7511243792949543  0.6661974598930326  0.5655032398836626   T   T   T
  0.1227780703239878  0.9167211616975597  0.5629188578067952   T   T   T
  0.2511466611764563 -0.0015399665516392  0.6918637486178314   T   T   T
  0.4997388976046286  0.9983137106981489  0.6893454863148758   T   T   T
  0.7511096264039880  0.9981910987914607  0.6918521440974277   T   T   T
  0.3754607183585423  0.2500384410067378  0.6908044253864005   T   T   T
  0.6255270657551729  0.2495981099894751  0.6923384695858813   T   T   T
  0.8754142699149785  0.2500338136507911  0.6911087658132643   T   T   T
 -0.0002107293243530  0.4982947203475732  0.6903658929545755   T   T   T
  0.4997572596662572  0.4982769642730523  0.6892848896085542   T   T   T
  0.7512680033670487  0.4982416996999348  0.6919656574444898   T   T   T
  0.1253987323632294  0.7495231346205997  0.6931585351945879   T   T   T
  0.6253241035698384  0.7495715825337074  0.6928376660778336   T   T   T
  0.8754121204023042  0.7501624727231504  0.6910024706072785   T   T   T
 -0.0002048349188205  0.9983217084773901  0.6905166170239377   T   T   T
  0.1253761814517052  0.2497129017959690  0.6930426292753020   T   T   T
  0.2511676783500078  0.4982767487291501  0.6917170567641250   T   T   T
  0.3752986415071219  0.7501202058692402  0.6901532774576268   T   T   T
  0.5000000000000000  0.0000000000000000  0.3221714857156925   F   F   F
  0.6250000000000000  0.2500000000000000  0.3221714857156925   F   F   F
  0.8750000000000000  0.7500000000000000  0.3221714857156925   F   F   F
  0.3750000000000000  0.0833333333333357  0.4407238285718975   F   F   F
  0.6250000000000000  0.5833333333333357  0.4407238285718975   F   F   F
  0.7500000000000000  0.8333333333333357  0.4407238285718975   F   F   F
  0.2511093683383370  0.1661956222433158  0.5655133806032316   T   T   T
  0.4971788600844572  0.6703691285365518  0.5629417202859421   T   T   T
  0.6225139475236007  0.9170094041249144  0.5625759951997046   T   T   T
  0.2500000000000000  0.0000000000000000  0.3221714857156925   F   F   F
  0.7500000000000000  0.0000000000000000  0.3221714857156925   F   F   F
  0.2500000000000000  0.5000000000000000  0.3221714857156925   F   F   F
  0.0000000000000000  0.3333333333333357  0.4407238285718975   F   F   F
  0.0000000000000000  0.8333333333333357  0.4407238285718975   F   F   F
  0.5000000000000000  0.8333333333333357  0.4407238285718975   F   F   F
  0.8745004293072675  0.4172004106777567  0.5626170519398525   T   T   T
  0.3740164834881015  0.9177631640891040  0.5625728637088222   T   T   T
  0.8747290027546254  0.9175835358347624  0.5630913104085216   T   T   T
  0.7500000000000000  0.5000000000000000  0.3221714857156925   F   F   F
  0.5000000000000000  0.3333333333333357  0.4407238285718975   F   F   F
  0.3743055951307687  0.4175814465375149  0.5624932705894147   T   T   T
 
  0.00000000E+00  0.00000000E+00  0.00000000E+00
  0.00000000E+00  0.00000000E+00  0.00000000E+00
  0.00000000E+00  0.00000000E+00  0.00000000E+00
  0.00000000E+00  0.00000000E+00  0.00000000E+00
  0.00000000E+00  0.00000000E+00  0.00000000E+00
  0.00000000E+00  0.00000000E+00  0.00000000E+00
  0.00000000E+00  0.00000000E+00  0.00000000E+00
  0.00000000E+00  0.00000000E+00  0.00000000E+00
  0.00000000E+00  0.00000000E+00  0.00000000E+00
  0.00000000E+00  0.00000000E+00  0.00000000E+00
  0.00000000E+00  0.00000000E+00  0.00000000E+00
  0.00000000E+00  0.00000000E+00  0.00000000E+00
  0.00000000E+00  0.00000000E+00  0.00000000E+00
  0.00000000E+00  0.00000000E+00  0.00000000E+00
  0.00000000E+00  0.00000000E+00  0.00000000E+00
  0.00000000E+00  0.00000000E+00  0.00000000E+00
  0.00000000E+00  0.00000000E+00  0.00000000E+00
  0.00000000E+00  0.00000000E+00  0.00000000E+00
  0.00000000E+00  0.00000000E+00  0.00000000E+00
  0.00000000E+00  0.00000000E+00  0.00000000E+00
  0.00000000E+00  0.00000000E+00  0.00000000E+00
  0.00000000E+00  0.00000000E+00  0.00000000E+00
  0.00000000E+00  0.00000000E+00  0.00000000E+00
  0.00000000E+00  0.00000000E+00  0.00000000E+00
  0.00000000E+00  0.00000000E+00  0.00000000E+00
  0.00000000E+00  0.00000000E+00  0.00000000E+00
  0.00000000E+00  0.00000000E+00  0.00000000E+00
  0.00000000E+00  0.00000000E+00  0.00000000E+00
  0.00000000E+00  0.00000000E+00  0.00000000E+00
  0.00000000E+00  0.00000000E+00  0.00000000E+00
  0.00000000E+00  0.00000000E+00  0.00000000E+00
  0.00000000E+00  0.00000000E+00  0.00000000E+00
  0.00000000E+00  0.00000000E+00  0.00000000E+00
  0.00000000E+00  0.00000000E+00  0.00000000E+00
  0.00000000E+00  0.00000000E+00  0.00000000E+00
  0.00000000E+00  0.00000000E+00  0.00000000E+00
  0.00000000E+00  0.00000000E+00  0.00000000E+00
  0.00000000E+00  0.00000000E+00  0.00000000E+00
  0.00000000E+00  0.00000000E+00  0.00000000E+00
  0.00000000E+00  0.00000000E+00  0.00000000E+00
  0.00000000E+00  0.00000000E+00  0.00000000E+00
  0.00000000E+00  0.00000000E+00  0.00000000E+00
  0.00000000E+00  0.00000000E+00  0.00000000E+00
  0.00000000E+00  0.00000000E+00  0.00000000E+00
  0.00000000E+00  0.00000000E+00  0.00000000E+00
  0.00000000E+00  0.00000000E+00  0.00000000E+00
  0.00000000E+00  0.00000000E+00  0.00000000E+00
  0.00000000E+00  0.00000000E+00  0.00000000E+00
  0.00000000E+00  0.00000000E+00  0.00000000E+00
  0.00000000E+00  0.00000000E+00  0.00000000E+00
  0.00000000E+00  0.00000000E+00  0.00000000E+00
  0.00000000E+00  0.00000000E+00  0.00000000E+00
  0.00000000E+00  0.00000000E+00  0.00000000E+00
  0.00000000E+00  0.00000000E+00  0.00000000E+00
  0.00000000E+00  0.00000000E+00  0.00000000E+00
  0.00000000E+00  0.00000000E+00  0.00000000E+00
  0.00000000E+00  0.00000000E+00  0.00000000E+00
  0.00000000E+00  0.00000000E+00  0.00000000E+00
  0.00000000E+00  0.00000000E+00  0.00000000E+00
  0.00000000E+00  0.00000000E+00  0.00000000E+00
  0.00000000E+00  0.00000000E+00  0.00000000E+00
  0.00000000E+00  0.00000000E+00  0.00000000E+00
  0.00000000E+00  0.00000000E+00  0.00000000E+00
  0.00000000E+00  0.00000000E+00  0.00000000E+00
