Pt                                      
   1.00000000000000     
    11.0993137229289989    0.0000000000000000    0.0000000000000000
     0.0000000000000000    9.6122876486297457    0.0000000000000000
     0.0000000000000000    0.0000000000000000   18.7969137790617893
   Pt
    64
Selective dynamics
Direct
  0.0000000000000000  0.0000000000000000  0.3192013364812851   F   F   F
  0.2500000000000000  0.0000000000000000  0.3192013364812851   F   F   F
  0.5000000000000000  0.0000000000000000  0.3192013364812851   F   F   F
  0.7500000000000000  0.0000000000000000  0.3192013364812851   F   F   F
  0.1250000000000000  0.2500000000000000  0.3192013364812851   F   F   F
  0.3750000000000000  0.2500000000000000  0.3192013364812851   F   F   F
  0.6250000000000000  0.2500000000000000  0.3192013364812851   F   F   F
  0.8750000000000000  0.2500000000000000  0.3192013364812851   F   F   F
  0.0000000000000000  0.5000000000000000  0.3192013364812851   F   F   F
  0.2500000000000000  0.5000000000000000  0.3192013364812851   F   F   F
  0.5000000000000000  0.5000000000000000  0.3192013364812851   F   F   F
  0.7500000000000000  0.5000000000000000  0.3192013364812851   F   F   F
  0.1250000000000000  0.7500000000000000  0.3192013364812851   F   F   F
  0.3750000000000000  0.7500000000000000  0.3192013364812851   F   F   F
  0.6250000000000000  0.7500000000000000  0.3192013364812851   F   F   F
  0.8750000000000000  0.7500000000000000  0.3192013364812851   F   F   F
  0.1250000000000000  0.0833333333333357  0.4397337788270974   F   F   F
  0.3750000000000000  0.0833333333333357  0.4397337788270974   F   F   F
  0.6250000000000000  0.0833333333333357  0.4397337788270974   F   F   F
  0.8750000000000000  0.0833333333333357  0.4397337788270974   F   F   F
  0.0000000000000000  0.3333333333333357  0.4397337788270974   F   F   F
  0.2500000000000000  0.3333333333333357  0.4397337788270974   F   F   F
  0.5000000000000000  0.3333333333333357  0.4397337788270974   F   F   F
  0.7500000000000000  0.3333333333333357  0.4397337788270974   F   F   F
  0.1250000000000000  0.5833333333333357  0.4397337788270974   F   F   F
  0.3750000000000000  0.5833333333333357  0.4397337788270974   F   F   F
  0.6250000000000000  0.5833333333333357  0.4397337788270974   F   F   F
  0.8750000000000000  0.5833333333333357  0.4397337788270974   F   F   F
  0.0000000000000000  0.8333333333333357  0.4397337788270974   F   F   F
  0.2500000000000000  0.8333333333333357  0.4397337788270974   F   F   F
  0.5000000000000000  0.8333333333333357  0.4397337788270974   F   F   F
  0.7500000000000000  0.8333333333333357  0.4397337788270974   F   F   F
  0.0000013604870473  0.1668978048735610  0.5640536678811993   T   T   T
  0.2499997456390910  0.1668994206579265  0.5640578821484843   T   T   T
  0.4999997409172360  0.1668977848678878  0.5640551775150890   T   T   T
  0.7499993101026742  0.1668979012982520  0.5640499601223479   T   T   T
  0.1249998156089004  0.4169019950439878  0.5640671249030291   T   T   T
  0.3750008155201109  0.4169030669477100  0.5640686270046227   T   T   T
  0.6249978640909274  0.4169014615055648  0.5640620171178764   T   T   T
  0.8750016488814123  0.4169014701805819  0.5640603136906501   T   T   T
  0.0000002000272210  0.6668956263991563  0.5640683650150490   T   T   T
  0.2500003544730821  0.6668965096055151  0.5640734939807559   T   T   T
  0.4999997982754556  0.6668955687279707  0.5640705046374840   T   T   T
  0.7499998126966838  0.6668952217647990  0.5640640406567405   T   T   T
  0.1249985472634068  0.9168936314056956  0.5640610986687118   T   T   T
  0.3750016689256235  0.9168936215531761  0.5640618636437768   T   T   T
  0.6249981303443163  0.9168918786956900  0.5640566419577278   T   T   T
  0.8750018193913960  0.9168917016446938  0.5640552749616742   T   T   T
 -0.0000025032364018 -0.0007689096345603  0.6902268362108664   T   T   T
  0.2499998240979524 -0.0007669656296614  0.6902323401061292   T   T   T
  0.5000024565753485 -0.0007691079964372  0.6902281564168420   T   T   T
  0.7500003836616490 -0.0007671089281706  0.6902213550681963   T   T   T
  0.1249985720887319  0.2492274401653805  0.6902301003217709   T   T   T
  0.3750014477142157  0.2492280499616799  0.6902317366444174   T   T   T
  0.6249989479516731  0.2492294472469024  0.6902241525040725   T   T   T
  0.8749987644685414  0.2492320915278352  0.6902241485052000   T   T   T
 -0.0000026435774944  0.4992269295422094  0.6902319253593663   T   T   T
  0.2499998800919917  0.4992288412158057  0.6902390294299342   T   T   T
  0.5000025451834099  0.4992270442004833  0.6902344688540586   T   T   T
  0.7500003407065409  0.4992289936557024  0.6902251687085341   T   T   T
  0.1249975079704795  0.7492321852301654  0.6902371229197301   T   T   T
  0.3750019578360990  0.7492332382216381  0.6902382362209040   T   T   T
  0.6250026168571483  0.7492316593573267  0.6902296017624598   T   T   T
  0.8749980472515013  0.7492325183630592  0.6902283772871808   T   T   T
 
  0.00000000E+00  0.00000000E+00  0.00000000E+00
  0.00000000E+00  0.00000000E+00  0.00000000E+00
  0.00000000E+00  0.00000000E+00  0.00000000E+00
  0.00000000E+00  0.00000000E+00  0.00000000E+00
  0.00000000E+00  0.00000000E+00  0.00000000E+00
  0.00000000E+00  0.00000000E+00  0.00000000E+00
  0.00000000E+00  0.00000000E+00  0.00000000E+00
  0.00000000E+00  0.00000000E+00  0.00000000E+00
  0.00000000E+00  0.00000000E+00  0.00000000E+00
  0.00000000E+00  0.00000000E+00  0.00000000E+00
  0.00000000E+00  0.00000000E+00  0.00000000E+00
  0.00000000E+00  0.00000000E+00  0.00000000E+00
  0.00000000E+00  0.00000000E+00  0.00000000E+00
  0.00000000E+00  0.00000000E+00  0.00000000E+00
  0.00000000E+00  0.00000000E+00  0.00000000E+00
  0.00000000E+00  0.00000000E+00  0.00000000E+00
  0.00000000E+00  0.00000000E+00  0.00000000E+00
  0.00000000E+00  0.00000000E+00  0.00000000E+00
  0.00000000E+00  0.00000000E+00  0.00000000E+00
  0.00000000E+00  0.00000000E+00  0.00000000E+00
  0.00000000E+00  0.00000000E+00  0.00000000E+00
  0.00000000E+00  0.00000000E+00  0.00000000E+00
  0.00000000E+00  0.00000000E+00  0.00000000E+00
  0.00000000E+00  0.00000000E+00  0.00000000E+00
  0.00000000E+00  0.00000000E+00  0.00000000E+00
  0.00000000E+00  0.00000000E+00  0.00000000E+00
  0.00000000E+00  0.00000000E+00  0.00000000E+00
  0.00000000E+00  0.00000000E+00  0.00000000E+00
  0.00000000E+00  0.00000000E+00  0.00000000E+00
  0.00000000E+00  0.00000000E+00  0.00000000E+00
  0.00000000E+00  0.00000000E+00  0.00000000E+00
  0.00000000E+00  0.00000000E+00  0.00000000E+00
  0.00000000E+00  0.00000000E+00  0.00000000E+00
  0.00000000E+00  0.00000000E+00  0.00000000E+00
  0.00000000E+00  0.00000000E+00  0.00000000E+00
  0.00000000E+00  0.00000000E+00  0.00000000E+00
  0.00000000E+00  0.00000000E+00  0.00000000E+00
  0.00000000E+00  0.00000000E+00  0.00000000E+00
  0.00000000E+00  0.00000000E+00  0.00000000E+00
  0.00000000E+00  0.00000000E+00  0.00000000E+00
  0.00000000E+00  0.00000000E+00  0.00000000E+00
  0.00000000E+00  0.00000000E+00  0.00000000E+00
  0.00000000E+00  0.00000000E+00  0.00000000E+00
  0.00000000E+00  0.00000000E+00  0.00000000E+00
  0.00000000E+00  0.00000000E+00  0.00000000E+00
  0.00000000E+00  0.00000000E+00  0.00000000E+00
  0.00000000E+00  0.00000000E+00  0.00000000E+00
  0.00000000E+00  0.00000000E+00  0.00000000E+00
  0.00000000E+00  0.00000000E+00  0.00000000E+00
  0.00000000E+00  0.00000000E+00  0.00000000E+00
  0.00000000E+00  0.00000000E+00  0.00000000E+00
  0.00000000E+00  0.00000000E+00  0.00000000E+00
  0.00000000E+00  0.00000000E+00  0.00000000E+00
  0.00000000E+00  0.00000000E+00  0.00000000E+00
  0.00000000E+00  0.00000000E+00  0.00000000E+00
  0.00000000E+00  0.00000000E+00  0.00000000E+00
  0.00000000E+00  0.00000000E+00  0.00000000E+00
  0.00000000E+00  0.00000000E+00  0.00000000E+00
  0.00000000E+00  0.00000000E+00  0.00000000E+00
  0.00000000E+00  0.00000000E+00  0.00000000E+00
  0.00000000E+00  0.00000000E+00  0.00000000E+00
  0.00000000E+00  0.00000000E+00  0.00000000E+00
  0.00000000E+00  0.00000000E+00  0.00000000E+00
  0.00000000E+00  0.00000000E+00  0.00000000E+00
