Ni Pt 
 1.0000000000000000
    10.2503609999999998    0.0000000000000000    0.0000000000000000
     0.0000000000000000    8.8770729999999993    0.0000000000000000
     0.0000000000000000    0.0000000000000000   18.2770389999999985
 Ni  Pt 
  36  28
Cartesian
  0.0470038543584621 -0.0207854122296713  5.8929857491704345
  2.5921507655412355 -0.0420638587784251  5.9244901182123586
  7.7058903111305321 -0.0166506491156984  5.8733676871588596
  1.3155051242110800  2.2273430358705335  5.9145115968329742
  0.0449258640489115  4.4162869121072239  5.9024967970681228
  2.5939191799112460  4.3989823455962496  5.9290811743857867
  5.1467709611727388  4.3969028669700538  5.8989204589975124
  1.3185791549768153  6.6601282353799425  5.9112993992423961
  6.4292970204725908  6.6694939965954578  5.8751124328212612
  8.9948990075417967  0.7304785651317995  7.9872775306194610
  0.0264821823325268  2.9362600622243988  8.0030924610514251
  2.5988897497379799  2.9301309690763913  8.0810764062881191
  7.7192500441837346  2.9381055384460373  7.9778185819863499
  3.8635321688870841  5.1301699910828447  8.0961253247846567
  8.9936428036963569  5.1662480887360651  7.9906305443955823
  0.0273537995604051  7.3717245246121088  7.9774483849564897
  2.6019964956010191  7.3660127273370222  8.0622150482059425
  5.1315665399293273  7.3790374382176278  8.0323085559701326
  0.0181039690743866  1.4663187319869189 10.1267930310946639
  5.1459665130503662  1.4399392728479079 10.1378562277021036
  7.6687702505615150  1.4748477282979295 10.1162987412367773
  1.3035960673150431  3.6746115234745798 10.1722956681082231
  6.4110917473707554  3.6751182443593318 10.0995617510975215
  0.0206889059380039  5.9092153515068482 10.1157784476576147
  2.5795946284531390  5.8772073575868289 10.2179196603517202
  7.6649352315187098  5.9070964516264945 10.1181826755370050
  1.2983861470932487  8.1046840197634786 10.1467961605969013
  5.1472132384986322 -0.0382443098461838  5.8987684926419943
  6.4291140615973736  2.2355720178307990  5.8869214643206904
  7.7080685756094258  4.4180565745922689  5.8717036053631126
  3.8656049752078165  0.6988325150308674  8.0868712704947505
  5.1237808086903422  2.9426553069998156  8.0543770066834171
  7.7165435105694167  7.3761719152120007  7.9584255034850866
  2.5728529636603064  1.4466768644190404 10.2018778146507785
  5.1462698220781764  5.8796643480488440 10.1165077634510947
  6.4132056388354792  8.0989003351590068 10.0911084254364312
  3.8683820777429361  2.1829954289683449  5.9114823096664635
  9.0024482713099694  2.2032535112183274  5.8328853345260532
  3.8703349366552451  6.6185544374311549  5.8992060627958205
  1.3134055136829754  0.7147142016533813  8.0236237061084186
  6.4245544766618403  0.7252611316190556  7.9879189086875062
  1.3175304761835558  5.1524749507044225  8.0315522877764192
  9.0036103871519213  6.6393055370711185  5.8212267999812539
  6.4258637066423612  5.1596522058106249  7.9795956855912875
  8.9743314531165410  3.6999278862850646 10.0932536910149171
  3.8857668398750005  8.0908076580095614 10.2418291370627070
  8.9804744321424099  8.1326713274359257 10.0656139015031645
  2.5492229854218746 -0.0106782438242988 12.5361118429049139
  5.0900501316361071 -0.0015405727375629 13.2102366139215146
  7.5481209393492987 -0.0005291756776340 12.4091362529379374
  3.7770872310150434  2.2209560846110405 12.8355001528124770
  6.2398371427071897  2.2543921104989417 12.3014424886955336
  8.8597230311083521  2.2027370732599776 12.4432758769004792
 -0.0751138964030893  4.4300327675612943 12.5324603483834487
  5.1134972519608075  4.3799031776306974 13.6523510107616008
  7.5371455489930028  4.4372014655642014 12.4907859466919913
  1.2318405020287018  6.6459959302254514 12.3418749659497244
  6.2416067269500815  6.6430791516148160 12.2846551518398250
  8.8638858757838666  6.6421503934068831 12.4212717901745293
  3.8839111757802671  3.6620195174462036 10.2931539661430431
 10.1738734949043028 -0.0111762711380331 12.5783255576430424
  1.2271456751675591  2.2001884195841543 12.3533542246489478
  2.5319059757103011  4.4289410931535018 12.6569677157362399
  3.7864641182259953  6.6248068827227744 12.8522862449213076
