C  Pt
 1.0000000000000000
    19.6799999999999997    0.0000000000000000    0.0000000000000000
     0.0000000000000000   19.6799999999999997    0.0000000000000000
     0.0000000000000000    0.0000000000000000   20.0000000000000000
 C   Pt 
 128  55
Cartesian
  4.9199999999999999  2.0284508578643630  5.0000000000000000
  6.1500000000000004  2.7385916889676025  5.0000000000000000
  3.6899999999999999  4.1588733511740816  5.0000000000000000
  4.9199999999999999  4.8690141822773221  5.0000000000000000
  2.4600000000000000  6.2892958444838012  5.0000000000000000
  3.6899999999999999  6.9994366755870399  5.0000000000000000
  1.2300000000000000  8.4197183377935190  5.0000000000000000
  2.4600000000000000  9.1298591688967594  5.0000000000000000
  0.0000000000000000 10.5501408311032385  5.0000000000000000
  1.2300000000000000 11.2602816622064807  5.0000000000000000
 18.4499999999999993 12.6805633244129581  5.0000000000000000
  0.0000000000000000 13.3907041555162003  5.0000000000000000
 17.2200000000000024 14.8109858177226776  5.0000000000000000
 18.4499999999999993 15.5211266488259145  5.0000000000000000
 15.9900000000000020 16.9414083110323972  5.0000000000000000
 17.2200000000000024 17.6515491421356359  5.0000000000000000
  7.3799999999999999  2.0284508578643630  5.0000000000000000
  8.6099999999999994  2.7385916889676025  5.0000000000000000
  6.1500000000000004  4.1588733511740816  5.0000000000000000
  7.3799999999999999  4.8690141822773221  5.0000000000000000
  4.9199999999999999  6.2892958444838012  5.0000000000000000
  6.1500000000000004  6.9994366755870399  5.0000000000000000
  3.6899999999999999  8.4197183377935190  5.0000000000000000
  4.9199999999999999  9.1298591688967594  5.0000000000000000
  2.4600000000000000 10.5501408311032385  5.0000000000000000
  3.6899999999999999 11.2602816622064807  5.0000000000000000
  1.2300000000000000 12.6805633244129581  5.0000000000000000
  2.4600000000000000 13.3907041555162003  5.0000000000000000
  0.0000000000000000 14.8109858177226776  5.0000000000000000
  1.2300000000000000 15.5211266488259145  5.0000000000000000
 18.4499999999999993 16.9414083110323972  5.0000000000000000
  0.0000000000000000 17.6515491421356359  5.0000000000000000
  9.8399999999999981  2.0284508578643630  5.0000000000000000
 11.0700000000000003  2.7385916889676025  5.0000000000000000
  8.6099999999999994  4.1588733511740816  5.0000000000000000
  9.8399999999999981  4.8690141822773221  5.0000000000000000
  7.3799999999999999  6.2892958444838012  5.0000000000000000
  8.6099999999999994  6.9994366755870399  5.0000000000000000
  6.1500000000000004  8.4197183377935190  5.0000000000000000
  7.3799999999999999  9.1298591688967594  5.0000000000000000
  4.9199999999999999 10.5501408311032385  5.0000000000000000
  6.1500000000000004 11.2602816622064807  5.0000000000000000
  3.6899999999999999 12.6805633244129581  5.0000000000000000
  4.9199999999999999 13.3907041555162003  5.0000000000000000
  2.4600000000000000 14.8109858177226776  5.0000000000000000
  3.6899999999999999 15.5211266488259145  5.0000000000000000
  1.2300000000000000 16.9414083110323972  5.0000000000000000
  2.4600000000000000 17.6515491421356359  5.0000000000000000
 12.3000000000000007  2.0284508578643630  5.0000000000000000
 13.5299999999999994  2.7385916889676025  5.0000000000000000
 11.0700000000000003  4.1588733511740816  5.0000000000000000
 12.3000000000000007  4.8690141822773221  5.0000000000000000
  9.8399999999999981  6.2892958444838012  5.0000000000000000
 11.0700000000000003  6.9994366755870399  5.0000000000000000
  8.6099999999999994  8.4197183377935190  5.0000000000000000
  9.8399999999999981  9.1298591688967594  5.0000000000000000
  7.3799999999999999 10.5501408311032385  5.0000000000000000
  8.6099999999999994 11.2602816622064807  5.0000000000000000
  6.1500000000000004 12.6805633244129581  5.0000000000000000
  7.3799999999999999 13.3907041555162003  5.0000000000000000
  4.9199999999999999 14.8109858177226776  5.0000000000000000
  6.1500000000000004 15.5211266488259145  5.0000000000000000
  3.6899999999999999 16.9414083110323972  5.0000000000000000
  4.9199999999999999 17.6515491421356359  5.0000000000000000
 14.7599999999999998  2.0284508578643630  5.0000000000000000
 15.9900000000000002  2.7385916889676025  5.0000000000000000
 13.5299999999999994  4.1588733511740816  5.0000000000000000
 14.7599999999999998  4.8690141822773221  5.0000000000000000
 12.3000000000000007  6.2892958444838012  5.0000000000000000
 13.5299999999999994  6.9994366755870399  5.0000000000000000
 11.0700000000000003  8.4197183377935190  5.0000000000000000
 12.3000000000000007  9.1298591688967594  5.0000000000000000
  9.8399999999999981 10.5501408311032385  5.0000000000000000
 11.0700000000000003 11.2602816622064807  5.0000000000000000
  8.6099999999999994 12.6805633244129581  5.0000000000000000
  9.8399999999999981 13.3907041555162003  5.0000000000000000
  7.3799999999999999 14.8109858177226776  5.0000000000000000
  8.6099999999999994 15.5211266488259145  5.0000000000000000
  6.1500000000000004 16.9414083110323972  5.0000000000000000
  7.3799999999999999 17.6515491421356359  5.0000000000000000
 17.2199999999999989  2.0284508578643630  5.0000000000000000
 18.4500000000000028  2.7385916889676025  5.0000000000000000
 15.9900000000000002  4.1588733511740816  5.0000000000000000
 17.2199999999999989  4.8690141822773221  5.0000000000000000
 14.7599999999999998  6.2892958444838012  5.0000000000000000
 15.9900000000000002  6.9994366755870399  5.0000000000000000
 13.5299999999999994  8.4197183377935190  5.0000000000000000
 14.7600000000000016  9.1298591688967594  5.0000000000000000
 12.3000000000000007 10.5501408311032385  5.0000000000000000
 13.5299999999999994 11.2602816622064807  5.0000000000000000
 11.0700000000000003 12.6805633244129581  5.0000000000000000
 12.3000000000000007 13.3907041555162003  5.0000000000000000
  9.8399999999999981 14.8109858177226776  5.0000000000000000
 11.0700000000000003 15.5211266488259145  5.0000000000000000
  8.6100000000000012 16.9414083110323972  5.0000000000000000
  9.8399999999999981 17.6515491421356359  5.0000000000000000
  0.0000000000000011  2.0284508578643630  5.0000000000000000
  1.2300000000000011  2.7385916889676025  5.0000000000000000
 18.4499999999999993  4.1588733511740816  5.0000000000000000
  0.0000000000000011  4.8690141822773221  5.0000000000000000
 17.2199999999999989  6.2892958444838012  5.0000000000000000
 18.4500000000000028  6.9994366755870399  5.0000000000000000
 15.9900000000000002  8.4197183377935190  5.0000000000000000
 17.2199999999999989  9.1298591688967594  5.0000000000000000
 14.7599999999999998 10.5501408311032385  5.0000000000000000
 15.9900000000000002 11.2602816622064807  5.0000000000000000
 13.5299999999999994 12.6805633244129581  5.0000000000000000
 14.7599999999999998 13.3907041555162003  5.0000000000000000
 12.3000000000000007 14.8109858177226776  5.0000000000000000
 13.5299999999999994 15.5211266488259145  5.0000000000000000
 11.0700000000000003 16.9414083110323972  5.0000000000000000
 12.3000000000000007 17.6515491421356359  5.0000000000000000
  2.4600000000000009  2.0284508578643630  5.0000000000000000
  3.6899999999999968  2.7385916889676025  5.0000000000000000
  1.2299999999999967  4.1588733511740816  5.0000000000000000
  2.4600000000000009  4.8690141822773221  5.0000000000000000
  0.0000000000000011  6.2892958444838012  5.0000000000000000
  1.2299999999999967  6.9994366755870399  5.0000000000000000
 18.4499999999999993  8.4197183377935190  5.0000000000000000
  0.0000000000000011  9.1298591688967594  5.0000000000000000
 17.2199999999999989 10.5501408311032385  5.0000000000000000
 18.4499999999999993 11.2602816622064807  5.0000000000000000
 15.9899999999999984 12.6805633244129581  5.0000000000000000
 17.2199999999999989 13.3907041555162003  5.0000000000000000
 14.7599999999999998 14.8109858177226776  5.0000000000000000
 15.9900000000000002 15.5211266488259145  5.0000000000000000
 13.5299999999999994 16.9414083110323972  5.0000000000000000
 14.7599999999999998 17.6515491421356359  5.0000000000000000
  5.6789850046819055  7.0227155595218118 10.1368771302312375
  7.7969615796278857  4.9029236137731198 10.1385261859364810
  7.7950294326750669  7.0224819539291055  8.0204259124915840
  5.8401595131944033  5.0689716489304271 12.1998681293042068
  5.6850753163638981  7.0214222236660477 14.2597808104504082
  7.7931123081895581  4.9123552922587210 14.2595900037121925
  7.7953398931251163  7.0234303214412970 12.1946949022114950
  7.7976483661696783  7.0264213123892931 16.3780336592816980
  5.8406188903201199  9.0857159829818670  8.1836615831525101
  5.6853366358093238 11.1461246949748212 10.1349367470262788
  7.7944451353853372  9.0808008179875532 10.1376739921191277
  7.7922854952142364 11.1458954994471124  8.0278424594466848
  5.6136910761572425  9.0845596978998682 12.1984974740429681
  5.6788900827976585 11.1439997531412551 14.2583317865988164
  7.7930551089237703  9.0853047032884842 14.2619140917872844
  7.7939054282440319 11.1479110571383160 12.1989561631496368
  5.8377355763482175  9.0847203988910934 16.2175009555686280
  7.7962457960238281 11.1490071501548442 16.3708280642864175
  7.7990824888548449 13.2671177424936939 10.1417965297550481
  5.8377945652461962 13.1032915362839084 12.1988476227340321
  7.7968195181635584 13.2575437625670620 14.2625195526399970
  9.8568246028148678  5.0701377772073712  8.1843368006877544
  9.8521186731931110  7.0226971476947631 10.1378162225017920
 11.9157268121619229  4.9123238044030808 10.1356778008184989
 11.9163005762027865  7.0208604429401396  8.0273692928585625
  9.8558850224215977  4.8408885702263751 12.1989217986457916
  9.8565646339713329  7.0211707654580202 14.2618541633638465
 11.9134638718499453  4.9027498421154840 14.2564008270520155
 11.9186408848557832  7.0219565008903881 12.1992412137127548
  9.8563807164564619  5.0670367429156871 16.2169639994196579
 11.9202608339808105  7.0239720743467959 16.3703548960953995
  9.8557034132274435  9.0847396474547217  7.9562634259430762
  9.8559817020457405 11.1486967702272182 10.1363432249403260
 11.9194912254209129  9.0845628686014610 10.1362832682756370
 11.9148979489724915 11.1434462944798920  8.0201637051833128
  9.8562731577772773  9.0849337664008800 12.1990986920478566
  9.8604277022034417 11.1471703807145417 14.2603811597687180
 11.9181011978087650  9.0890667760131780 14.2605233745365911
 11.9172064377388178 11.1464372538635832 12.2035024216145462
  9.8568429015658143  9.0851279240256133 16.4419339428141704
 11.9175168956777195 11.1473856380484886 16.3777714502011165
  9.8561656114736298 13.1028308214531339  8.1812333735538800
 11.9194340338914841 13.2575122753726102 10.1386073843217481
  9.8566613124541060 13.3289789913691692 12.1992755612753143
 11.9155847532504318 13.2669439530166464 14.2596711561606284
  9.8557217310010881 13.0997298114070126 16.2138605419722914
 14.0336562327946481  7.0258678353098105 10.1398655811202314
 13.8747517801680402  5.0665760568395761 12.1993497186242124
 14.0272097110088936  7.0237429030398841 14.2632606244150999
 13.8748107515025794  9.0851472031310845  8.1806963974675000
 14.0274710119619641 11.1484453284902223 10.1384165269008442
 14.0988552441728654  9.0853078877561675 12.1996999035784803
 14.0335613292210581 11.1471520566867834 14.2613202142890021
 13.8719274227646281  9.0841516071507709 16.2145357876819283
 13.8723868441125049 13.1008959127390572 12.1983292218770707
